(set-option :produce-models true); benchmark generated from python API
(set-info :status unknown)
(declare-fun l_0_0_4 () Real)
(declare-fun l_0_0_1 () Real)
(declare-fun _a_0_ () Real)
(declare-fun l_0_0_5 () Real)
(declare-fun l_0_0_2 () Real)
(declare-fun _a_1_ () Real)
(declare-fun l_0_0_6 () Real)
(declare-fun l_0_0_3 () Real)
(declare-fun l_0_1_8 () Real)
(declare-fun l_0_1_7 () Real)
(declare-fun l_0_1_4 () Real)
(declare-fun l_0_1_5 () Real)
(declare-fun l_0_1_1 () Real)
(declare-fun l_0_1_2 () Real)
(declare-fun l_0_1_9 () Real)
(declare-fun l_0_1_6 () Real)
(declare-fun l_0_1_3 () Real)
(declare-fun l_0_2_1 () Real)
(declare-fun l_0_2_3 () Real)
(declare-fun l_0_2_4 () Real)
(declare-fun l_0_2_6 () Real)
(declare-fun l_0_2_7 () Real)
(declare-fun l_0_2_9 () Real)
(assert
 (let ((?x35 (* l_0_0_4 l_0_0_4)))
 (= (- (- _a_0_ (* (* 3.0 l_0_0_1) l_0_0_1)) ?x35) 0.0)))
(assert
 (let ((?x76 (- (- _a_1_ (* (* 6.0 l_0_0_1) l_0_0_2)) (* (* 2.0 l_0_0_1) l_0_0_1))))
 (= (- ?x76 (* (* 2.0 l_0_0_4) l_0_0_5)) 0.0)))
(assert
 (let ((?x113 (* l_0_0_6 l_0_0_6)))
 (let ((?x111 (* l_0_0_5 l_0_0_5)))
 (let ((?x107 (- (+ (* (* (- 4.0) l_0_0_1) l_0_0_2) (* l_0_0_1 l_0_0_1)) (* (* 3.0 l_0_0_2) l_0_0_2))))
 (let ((?x116 (- (- (- (- ?x107 (* (* 3.0 l_0_0_3) l_0_0_3)) ?x111) ?x113) 1.0)))
 (= ?x116 0.0))))))
(assert
 (let ((?x145 (- (* (* 2.0 l_0_0_1) l_0_0_2) (* (* 2.0 l_0_0_2) l_0_0_2))))
 (= (- ?x145 (* (* 2.0 l_0_0_3) l_0_0_3)) 0.0)))
(assert
 (= (+ (* l_0_0_2 l_0_0_2) (* l_0_0_3 l_0_0_3)) 0.0))
(assert
 (>= l_0_0_1 0.0))
(assert
 (>= l_0_0_3 0.0))
(assert
 (>= l_0_0_4 0.0))
(assert
 (>= l_0_0_6 0.0))
(assert
 (let ((?x178 (* l_0_1_4 l_0_1_4)))
 (let ((?x180 (* (/ 3.0 2.0) ?x178)))
 (let ((?x173 (- (* (* (* (- 2.0) _a_0_) l_0_1_1) l_0_1_2) (* (* _a_1_ l_0_1_1) l_0_1_1))))
 (let ((?x184 (- (+ (+ ?x173 (* (* 14.0 l_0_1_4) l_0_1_5)) ?x180) (* (* 2.0 l_0_1_7) l_0_1_8))))
 (= (+ ?x184 8.0) 0.0))))))
(assert
 (let ((?x229 (* l_0_1_9 l_0_1_9)))
 (let ((?x227 (* l_0_1_8 l_0_1_8)))
 (let ((?x224 (* l_0_1_6 l_0_1_6)))
 (let ((?x225 (* 7.0 ?x224)))
 (let ((?x220 (* l_0_1_5 l_0_1_5)))
 (let ((?x222 (* 7.0 ?x220)))
 (let ((?x178 (* l_0_1_4 l_0_1_4)))
 (let ((?x214 (* l_0_1_1 l_0_1_1)))
 (let ((?x213 (- (* (- _a_0_) (+ (* l_0_1_2 l_0_1_2) (* l_0_1_3 l_0_1_3))) (* (* (* 2.0 _a_1_) l_0_1_1) l_0_1_2))))
 (let ((?x223 (+ (- (+ (+ ?x213 ?x214) (* (* 3.0 l_0_1_4) l_0_1_5)) ?x178) ?x222)))
 (= (- (- (- (+ ?x223 ?x225) ?x227) ?x229) 1.0) 0.0))))))))))))
(assert
 (let ((?x270 (* l_0_1_7 l_0_1_7)))
 (let ((?x178 (* l_0_1_4 l_0_1_4)))
 (let ((?x268 (* 7.0 ?x178)))
 (= (- (- (+ (* (* (- _a_0_) l_0_1_1) l_0_1_1) ?x268) ?x270) 15.0) 0.0)))))
(assert
 (let ((?x290 (+ (* (- _a_1_) (+ (* l_0_1_2 l_0_1_2) (* l_0_1_3 l_0_1_3))) (* (* 2.0 l_0_1_1) l_0_1_2))))
 (let ((?x295 (+ (- ?x290 (* (* 2.0 l_0_1_4) l_0_1_5)) (* (/ 3.0 2.0) (* l_0_1_5 l_0_1_5)))))
 (= (+ ?x295 (* (/ 3.0 2.0) (* l_0_1_6 l_0_1_6))) 0.0))))
(assert
 (let ((?x224 (* l_0_1_6 l_0_1_6)))
 (let ((?x220 (* l_0_1_5 l_0_1_5)))
 (let ((?x207 (* l_0_1_3 l_0_1_3)))
 (let ((?x206 (* l_0_1_2 l_0_1_2)))
 (let ((?x208 (+ ?x206 ?x207)))
 (= (- (- ?x208 ?x220) ?x224) 0.0)))))))
(assert
 (>= l_0_1_1 0.0))
(assert
 (>= l_0_1_3 0.0))
(assert
 (>= l_0_1_4 0.0))
(assert
 (>= l_0_1_6 0.0))
(assert
 (>= l_0_1_7 0.0))
(assert
 (>= l_0_1_9 0.0))
(assert
 false)
(assert
 (>= l_0_2_1 0.0))
(assert
 (>= l_0_2_3 0.0))
(assert
 (>= l_0_2_4 0.0))
(assert
 (>= l_0_2_6 0.0))
(assert
 (>= l_0_2_7 0.0))
(assert
 (>= l_0_2_9 0.0))
(check-sat)
(get-model)